17	4
35	30	32	32	
0	0	0	0	0	3	2	3	4	
2	5	3	7	2	3	5	13	17	
10	9	3	7	2	2	6	8	
3	3	2	4	7	3	7	11	17	
5	9	7	4	9	2	12	17	
225	6	9	10	10	1	16	
25	4	4	1	2	2	9	17	
75	9	4	1	3	2	10	15	
75	3	3	7	5	1	17	
250	5	10	6	1	1	14	
125	6	5	2	3	2	17	17	
200	7	9	9	8	1	17	
7	7	5	6	5	1	16	
3	8	5	2	1	3	17	17	17	
9	7	10	9	1	1	17	
10	3	9	2	2	2	17	17	
0	0	0	0	0	0	
